NAME : portcgen-25-32
COMMENT : portcgen N=25, seed=32
TYPE : TSP
DIMENSION : 25
EDGE_WEIGHT_TYPE : EUC_2D
NODE_COORD_SECTION
1 -121855 -376474
2 -13597 -32858
3 -85629 244904
4 201292 -128060
5 -65327 -172092
6 -20428 -170752
7 -63250 151011
8 -6363 63896
9 30386 196024
10 -331549 -51502
11 -264508 46316
12 472268 -198803
13 -276651 30271
14 80545 -114588
15 -99223 -168155
16 -217174 -153281
17 -108713 -118429
18 222947 -112459
19 99365 271551
20 8869 42026
21 40831 -68287
22 149500 31941
23 -68288 53290
24 -52221 10014
25 184224 158334
